p cnf 86 287
-3 1 0
-3 -2 0
-1 2 3 0
-4 3 0
-4 -2 0
-3 2 4 0
-7 -6 0
-7 6 0
9 -7 0
9 -8 0
7 8 -9 0
10 5 0
10 -9 0
-5 9 -10 0
4 -10 -11 0
-4 10 -11 0
4 10 11 0
-4 -10 11 0
-12 -6 0
-12 -7 0
6 7 12 0
-14 -7 0
-14 13 0
7 -13 14 0
-12 14 -15 0
12 -14 -15 0
-12 -14 15 0
12 14 15 0
17 -13 0
17 -16 0
13 16 -17 0
-18 -8 0
-18 -17 0
8 17 18 0
19 -10 0
19 18 0
10 -18 -19 0
-19 -20 -21 0
19 20 -21 0
-19 20 21 0
19 -20 21 0
-21 8 -22 0
21 -8 -22 0
-21 -8 22 0
21 8 22 0
24 7 0
24 23 0
-7 -23 -24 0
26 -25 0
26 -16 0
25 16 -26 0
27 26 0
27 18 0
-26 -18 -27 0
-28 27 0
-28 7 0
-27 -7 28 0
24 -28 -29 0
-24 28 -29 0
24 28 29 0
-24 -28 29 0
22 -29 -30 0
-22 29 -30 0
22 29 30 0
-22 -29 30 0
-15 -30 -31 0
15 30 -31 0
-15 30 31 0
15 -30 31 0
6 -32 -33 0
-6 32 -33 0
6 32 33 0
-6 -32 33 0
33 8 -34 0
-33 -8 -34 0
33 -8 34 0
-33 8 34 0
19 -34 -35 0
-19 34 -35 0
19 34 35 0
-19 -34 35 0
37 -36 0
37 1 0
36 -1 -37 0
-39 5 0
-39 -38 0
-5 38 39 0
-21 39 -40 0
21 -39 -40 0
-21 -39 40 0
21 39 40 0
-42 2 0
-42 -41 0
-2 41 42 0
-43 39 0
-43 -42 0
-39 42 43 0
40 -43 -44 0
-40 43 -44 0
40 43 44 0
-40 -43 44 0
45 -37 0
45 -44 0
37 44 -45 0
-35 45 -46 0
35 -45 -46 0
-35 -45 46 0
35 45 46 0
7 -39 -47 0
-7 39 -47 0
7 39 47 0
-7 -39 47 0
-21 8 -48 0
21 -8 -48 0
-21 -8 48 0
21 8 48 0
-47 -48 -49 0
47 48 -49 0
-47 48 49 0
47 -48 49 0
50 46 0
50 -49 0
-46 49 -50 0
51 -1 0
51 -25 0
1 25 -51 0
-52 51 0
-52 -10 0
-51 10 52 0
-10 -52 -53 0
10 52 -53 0
-10 52 53 0
10 -52 53 0
54 7 0
54 -6 0
-7 6 -54 0
-55 53 0
-55 -54 0
-53 54 55 0
-56 -50 0
-56 55 0
50 -55 56 0
-57 -31 0
-57 -56 0
31 56 57 0
-58 -20 0
-58 -27 0
20 27 58 0
59 -58 0
59 14 0
58 -14 -59 0
60 -57 0
60 59 0
57 -59 -60 0
61 -10 0
61 -14 0
10 14 -61 0
-62 8 0
-62 -32 0
-8 32 62 0
-16 63 0
16 63 0
-63 -5 -64 0
63 5 -64 0
-63 5 64 0
63 -5 64 0
-16 64 -65 0
16 -64 -65 0
-16 -64 65 0
16 64 65 0
66 38 0
66 -58 0
-38 58 -66 0
-65 -66 -67 0
65 66 -67 0
-65 66 67 0
65 -66 67 0
32 39 -68 0
-32 -39 -68 0
32 -39 68 0
-32 39 68 0
69 67 0
69 -68 0
-67 68 -69 0
-70 -62 0
-70 -69 0
62 69 70 0
-61 -70 -71 0
61 70 -71 0
-61 70 71 0
61 -70 71 0
-72 -60 0
-72 -71 0
60 71 72 0
11 72 -73 0
-11 -72 -73 0
11 -72 73 0
-11 72 73 0
-74 9 0
-74 -9 0
75 -6 0
75 25 0
6 -25 -75 0
-76 -20 0
-76 75 0
20 -75 76 0
-77 38 0
-77 -33 0
-38 33 77 0
78 76 0
78 -77 0
-76 77 -78 0
79 -74 0
79 78 0
74 -78 -79 0
-73 -79 -80 0
73 79 -80 0
-73 79 80 0
73 -79 80 0
81 63 0
81 -34 0
-63 34 -81 0
-20 82 0
20 82 0
83 38 0
83 6 0
-38 -6 -83 0
-82 -83 -84 0
82 83 -84 0
-82 83 84 0
82 -83 84 0
-81 -84 -85 0
81 84 -85 0
-81 84 85 0
81 -84 85 0
86 -80 0
86 85 0
80 -85 -86 0
-13 -24 -84 66 -61 0
-52 -66 -60 46 -43 0
42 11 13 0
-30 -42 -69 0
-12 74 65 -50 76 49 0
67 -52 -10 3 0
76 -23 -64 86 0
-28 -32 70 47 0
36 -85 -69 -47 18 -64 0
62 27 -60 -66 0
-67 46 6 -64 0
-73 -42 -60 -9 0
47 -61 -21 0
-82 48 -27 -32 0
-67 64 0
81 19 -14 35 0
-50 -15 -21 0
-27 16 -1 -64 -67 -53 0
-86 -80 -22 29 0
32 -41 60 27 0
-37 6 43 -46 0
80 7 0
-85 10 -2 62 0
-86 -27 24 -12 0
58 -9 53 -16 -47 0
79 -43 -69 85 -47 -80 0
2 35 -69 -48 0
56 -39 18 -43 -36 0
-20 61 -16 12 0
51 41 -30 0
-6 -48 -64 39 -60 -52 0
49 -33 53 1 0
74 62 -39 63 -78 -25 0
81 -34 10 0
60 18 51 78 -25 0
-76 45 84 -37 34 -9 0
-41 -3 15 13 29 42 0
-71 -45 23 -28 0
-42 1 78 32 -29 31 0
3 -44 0
55 -20 40 -39 83 0
1 -14 -75 0
-83 -81 -26 44 0
10 -12 80 -67 38 0
-63 53 0
70 81 49 -66 -23 0
16 -12 53 -44 -38 -14 0
-80 -82 59 45 -4 0
86 0
